c File: instances/28_0.05_2.col
c
c Description: Random graph of size 28 vertices and P(0.05) of edges between any two vertices.
p col 28 378
e 2 3
e 2 22
e 3 28
e 4 6
e 5 20
e 5 26
e 9 13
e 11 21
e 12 18
e 13 19
e 15 18
e 16 19
e 17 27
e 21 25
e 26 27